&GLOBAL
  PROJECT H2O-64-NNP
  RUN_TYPE MD
  PRINT_LEVEL LOW
&END GLOBAL

&FORCE_EVAL
  STRESS_TENSOR ANALYTICAL
  METHOD  NNP
  &NNP
    NNP_INPUT_FILE_NAME ./nnp-parameters/input.nn
    SCALE_FILE_NAME     ./nnp-parameters/scaling.data
    &MODEL
       WEIGHTS          ./nnp-parameters/weights
    &END MODEL
  &END NNP
  &SUBSYS
    &COORD
 O         5.433000        2.474000        4.305000
 H         6.395000        2.396000        4.304000
 H         5.179000        1.641000        4.733000
 O         5.082000       10.330000       -0.097000
 H         5.790000       10.977000       -0.280000
 H         5.425000        9.512000        0.225000
 O         4.029000        7.608000        8.731000
 H         4.261000        6.944000        7.997000
 H         4.781000        8.281000        8.746000
 O         0.197000        6.472000       12.258000
 H        -0.654000        6.772000       12.566000
 H        -0.034000        6.191000       11.381000
 O         1.366000        4.685000        3.654000
 H         0.769000        5.340000        3.288000
 H         0.944000        4.089000        4.326000
 O         8.999000        3.997000       12.572000
 H         9.929000        4.062000       12.385000
 H         8.846000        4.190000       13.505000
 O        -0.038000        5.269000        9.638000
 H         0.752000        4.635000        9.686000
 H        -0.736000        4.857000        9.124000
 O        -0.455000        1.810000       10.978000
 H         0.013000        1.063000       11.272000
 H         0.247000        2.504000       10.791000
 O         3.799000       10.921000        2.099000
 H         3.366000       10.165000        2.521000
 H         4.269000       10.547000        1.321000
 O        10.174000       12.930000        3.088000
 H        10.774000       12.636000        3.727000
 H         9.565000       12.131000        2.940000
 O         7.779000        4.985000       10.120000
 H         8.078000        4.610000       10.966000
 H         7.004000        5.419000       10.383000
 O         2.161000        2.437000        2.337000
 H         1.446000        2.383000        1.699000
 H         1.982000        3.369000        2.616000
 O         5.757000        9.716000        9.319000
 H         6.147000       10.180000        8.498000
 H         6.487000        9.373000        9.799000
 O         1.007000        7.630000        8.702000
 H         1.952000        7.696000        8.923000
 H         0.773000        6.704000        9.015000
 O        10.416000        8.810000        4.648000
 H        10.079000        9.409000        3.950000
 H        11.376000        8.884000        4.520000
 O        12.250000       10.238000        9.102000
 H        12.674000       10.942000        8.673000
 H        12.726000        9.385000        8.849000
 O        -0.245000        3.423000        0.836000
 H         0.001000        4.211000        0.339000
 H        -0.423000        2.806000        0.115000
 O         4.832000        6.208000        6.539000
 H         4.860000        5.248000        6.507000
 H         4.027000        6.454000        6.094000
 O         1.572000        8.547000        3.484000
 H         1.779000        8.353000        4.409000
 H         0.915000        7.788000        3.325000
 O         9.736000       10.538000        0.085000
 H         9.340000       11.448000        0.049000
 H        10.713000       10.622000       -0.097000
 O         3.193000       10.718000        6.692000
 H         2.632000       11.510000        6.700000
 H         3.294000       10.425000        7.648000
 O         5.011000        3.418000        7.010000
 H         5.263000        3.291000        7.954000
 H         5.819000        3.481000        6.517000
 O         3.798000       11.556000        9.571000
 H         4.641000       10.975000        9.565000
 H         3.406000       11.476000       10.470000
 O         5.973000        3.028000        9.380000
 H         5.289000        3.102000       10.026000
 H         6.610000        3.748000        9.596000
 O        12.434000        3.703000        5.866000
 H        13.258000        3.232000        6.158000
 H        11.741000        2.982000        5.961000
 O        10.288000        7.613000        1.218000
 H        10.446000        8.512000        0.850000
 H         9.282000        7.484000        1.169000
 O         5.476000       12.049000        5.710000
 H         6.067000       11.909000        6.459000
 H         4.757000       11.425000        5.835000
 O         9.065000        1.107000        0.507000
 H         9.059000        2.006000        0.222000
 H         9.467000        1.078000        1.398000
 O         6.547000        0.459000       12.306000
 H         5.908000        0.941000       12.845000
 H         7.480000        0.758000       12.537000
 O         9.164000       10.226000        2.767000
 H         9.217000       10.023000        1.812000
 H         8.246000       10.413000        3.070000
 O         6.742000        8.221000        4.174000
 H         5.840000        8.002000        4.006000
 H         6.760000        9.161000        4.036000
 O         4.211000        4.755000        3.614000
 H         4.999000        4.301000        3.881000
 H         3.485000        4.429000        4.111000
 O        10.372000        1.267000        6.305000
 H        10.941000        0.580000        5.946000
 H        10.065000        1.123000        7.223000
 O         2.420000       12.917000        4.106000
 H         1.934000       13.513000        3.580000
 H         2.787000       12.345000        3.453000
 O         4.884000        2.218000        1.438000
 H         3.972000        2.335000        1.737000
 H         5.272000        2.256000        2.268000
 O         3.424000        1.461000        8.380000
 H         4.217000        1.562000        7.887000
 H         3.535000        0.723000        8.972000
 O         7.508000       11.199000        7.711000
 H         8.390000       11.060000        7.348000
 H         7.573000       11.720000        8.566000
 O         7.892000        8.758000       10.859000
 H         8.607000        9.388000       10.994000
 H         8.020000        8.138000       10.097000
 O         5.215000        6.212000       10.968000
 H         4.764000        6.641000       10.230000
 H         5.168000        6.937000       11.653000
 O         0.565000        9.327000        6.384000
 H         0.507000        8.407000        6.748000
 H         1.453000        9.602000        6.569000
 O         1.922000        6.589000        5.751000
 H         1.779000        5.877000        5.136000
 H         1.624000        6.346000        6.621000
 O        11.327000        6.207000        5.585000
 H        10.374000        5.937000        5.563000
 H        11.735000        5.419000        5.882000
 O         8.135000        2.007000        4.396000
 H         8.767000        1.476000        3.857000
 H         8.534000        2.380000        5.213000
 O         0.056000       11.828000        5.033000
 H         0.974000       12.107000        4.859000
 H         0.087000       10.908000        5.390000
 O         2.836000        0.605000       12.060000
 H         3.517000        0.770000       12.695000
 H         2.358000       -0.158000       12.450000
 O         9.894000        4.465000        8.177000
 H         9.635000        3.620000        8.589000
 H         9.301000        5.061000        8.697000
 O         8.007000        7.771000        8.062000
 H         8.664000        8.407000        7.714000
 H         7.922000        7.105000        7.385000
 O         4.579000        3.630000       11.641000
 H         4.902000        3.304000       12.518000
 H         4.665000        4.570000       11.673000
 O         6.482000       10.926000        3.399000
 H         5.640000       10.990000        2.860000
 H         6.331000       11.671000        4.044000
 O         4.497000        7.784000        0.725000
 H         3.575000        7.929000        0.478000
 H         4.403000        7.585000        1.717000
 O         9.964000        9.834000        7.396000
 H        10.089000        9.728000        6.437000
 H        10.843000       10.009000        7.710000
 O         7.603000        7.696000        1.522000
 H         7.396000        8.041000        2.440000
 H         6.878000        7.133000        1.171000
 O         2.614000        2.761000        5.824000
 H         3.425000        3.072000        6.232000
 H         2.867000        2.189000        5.113000
 O         1.897000        3.391000        9.960000
 H         2.532000        3.652000       10.669000
 H         2.514000        2.760000        9.485000
 O         9.550000        1.538000        8.989000
 H         8.809000        1.131000        9.469000
 H        10.278000        1.555000        9.615000
 O         8.492000        4.672000        2.805000
 H         8.556000        5.422000        3.432000
 H         8.660000        3.876000        3.371000
 O         0.441000       10.711000       12.056000
 H         0.834000        9.907000       12.432000
 H         0.355000       10.567000       11.098000
 O        12.128000        6.709000        3.122000
 H        11.888000        6.600000        4.039000
 H        11.355000        6.989000        2.620000
 O         1.648000        8.454000        0.586000
 H         1.596000        8.375000        1.569000
 H         1.079000        7.715000        0.199000
 O         8.768000        6.613000        4.830000
 H         9.481000        7.325000        4.667000
 H         7.981000        7.121000        4.736000
 O         7.798000        4.056000        6.201000
 H         8.554000        3.926000        6.846000
 H         8.098000        4.932000        5.949000
 O         0.979000        0.183000        7.758000
 H         1.833000        0.625000        7.769000
 H         0.588000        0.473000        6.973000
 O         4.346000        7.303000        3.293000
 H         3.530000        7.634000        3.717000
 H         4.268000        6.329000        3.397000
 O         7.172000        0.647000        9.696000
 H         6.971000        0.751000       10.654000
 H         6.830000        1.498000        9.319000
    &END COORD
    &CELL
      ABC [angstrom] 12.42 12.42 12.42
      PERIODIC XYZ
    &END CELL
  &END SUBSYS
&END FORCE_EVAL

&MOTION
  &MD
    ENSEMBLE NVT
    STEPS 10000
    TIMESTEP 0.5
    TEMPERATURE 300
    &THERMOSTAT
      TYPE CSVR
      REGION GLOBAL
      &CSVR
        TIMECON 200.00
      &END CSVR
    &END THERMOSTAT
    &PRINT
      FORCE_LAST
      &ENERGY
        &EACH
          MD 1
        &END EACH
      &END ENERGY
    &END PRINT
  &END MD
  &PRINT
    &TRAJECTORY
      &EACH
        MD 1
      &END EACH
    &END TRAJECTORY
    &RESTART OFF
    &END
    &RESTART_HISTORY OFF
    &END
  &END PRINT
&END MOTION
